100
128
3
32
9
24
38
3
8
47
34
1
12
43
7
20
44
5
1
13
12
31
38
53
6
24
64
24
28
15
22
16
56
27
35
44
41
34
21
44
39
22
12
8
46
6
44
6
27
56
14
40
7
13
47
52
26
5
56
49
1
51
7
48
26
25
59
26
32
60
9
26
46
29
15
22
26
13
36
12
52
37
26
47
29
59
16
32
41
39
15
22
19
2
58
1
51
52
32
63
44
63